c colouring generated by benchmark framework
p edge 144 2596
v 1 19
v 2 16
v 3 14
v 4 9
v 5 8
v 6 5
v 7 13
v 8 11
v 9 2
v 10 17
v 11 18
v 12 12
v 13 17
v 14 8
v 15 13
v 16 7
v 17 11
v 18 12
v 19 6
v 20 14
v 21 9
v 22 15
v 23 16
v 24 19
v 25 3
v 26 14
v 27 9
v 28 8
v 29 6
v 30 7
v 31 11
v 32 10
v 33 12
v 34 13
v 35 17
v 36 1
v 37 15
v 38 11
v 39 10
v 40 5
v 41 3
v 42 0
v 43 2
v 44 1
v 45 4
v 46 7
v 47 12
v 48 9
v 49 13
v 50 12
v 51 8
v 52 2
v 53 1
v 54 4
v 55 3
v 56 0
v 57 5
v 58 9
v 59 6
v 60 16
v 61 16
v 62 15
v 63 5
v 64 6
v 65 0
v 66 2
v 67 1
v 68 4
v 69 3
v 70 10
v 71 11
v 72 8
v 73 10
v 74 13
v 75 7
v 76 1
v 77 4
v 78 3
v 79 0
v 80 2
v 81 8
v 82 6
v 83 9
v 84 14
v 85 14
v 86 9
v 87 12
v 88 0
v 89 2
v 90 1
v 91 4
v 92 3
v 93 7
v 94 5
v 95 8
v 96 6
v 97 12
v 98 3
v 99 11
v 100 10
v 101 9
v 102 8
v 103 7
v 104 5
v 105 6
v 106 0
v 107 1
v 108 4
v 109 8
v 110 7
v 111 6
v 112 3
v 113 5
v 114 11
v 115 9
v 116 12
v 117 1
v 118 4
v 119 10
v 120 13
v 121 9
v 122 5
v 123 2
v 124 11
v 125 12
v 126 14
v 127 10
v 128 6
v 129 0
v 130 8
v 131 7
v 132 15
v 133 7
v 134 6
v 135 0
v 136 4
v 137 17
v 138 16
v 139 15
v 140 8
v 141 11
v 142 2
v 143 13
v 144 10
